100 10
298 269
532 560
323 225
719 703
435 105
734 149
795 568
134 417
346 587
483 652
180 61
397 319
600 512
215 125
709 445
592 416
57 228
524 571
686 744
822 328
558 326
524 434
940 834
344 675
472 280
400 394
358 411
507 589
916 623
307 623
509 428
449 332
80 173
583 571
154 392
419 333
242 288
361 443
234 143
438 135
310 516
476 462
562 629
608 540
800 320
365 235
364 197
373 605
684 589
253 371
917 543
479 467
685 672
293 318
414 636
520 148
304 343
278 429
218 178
436 90
681 239
506 653
204 201
326 338
249 408
308 704
636 461
508 672
583 344
257 487
654 377
931 809
621 407
427 552
600 379
344 358
327 611
672 480
606 223
616 572
610 762
572 332
506 678
397 615
533 582
82 221
411 333
279 512
718 429
356 288
363 422
358 199
325 525
613 651
732 118
593 655
324 292
582 753
385 127
154 226
